branch-and-cut/resultados/B/b13.sol
165
31
90 33
70 58
59 64
65 43
19 70
85 64
5 19
11 63
95 50
19 85
36 55
38 92
4 5
83 63
23 42
19 23
19 44
13 86
38 85
4 65
85 50
30 59
11 58
30 25
64 51
5 90
3 38
44 21
13 70
86 60
55 60
